// Objective Function
max: 14 u1 + 21 u2;

/* Constraints */
14 u1 + 3.5 u2 - 150 v1 - 0.2 v2 <= 0;
14 u1 + 21 u2 - 400 v1 - 0.7 v2 <= 0;
42 u1 + 10.5 u2 - 320 v1 - 1.2 v2 <= 0;
28 u1 + 42 u2 - 520 v1 - 2.0 v2 <= 0;
19 u1 + 25 u2 - 350 v1 - 1.2 v2 <= 0;
14 u1 + 15 u2 - 320 v1 - 0.7 v2 <= 0;
+ 400 v1 + 0.7 v2 = 1;